10 1 5
895 629 105 976 672 508 16 216 235 192 
431 548 16 39 25 922 521 648 92 522 
541 131 57 964 385 866 379 662 508 562 
665 402 191 769 378 862 277 394 77 512 
585 508 60 600 546 85 522 67 732 614 
5880 2730 7440 6450 2370 1280 5110 6150 7890 180 
22740
